3332
3319
3367
3288
3338
3259
3362
3328
3368
3348
3337
3299
3308
3355
3330
3361
3341
3370
3329
3262
3333
3306
3273
3306
3251
3316
3360
3363
3330
3389
3382
3352
3339
3340
3371
3285
3379
3382
3318
3343
3307
3339
3368
3346
3347
3271
3312
3259
3299
3390
3344
3322
3322
3179
3335
3359
3349
3367
3380
3346
3350
3354
3318
3334
3413
3338
3348
3341
3353
3320
3294
3314
3365
3362
3370
3360
3371
3351
3296
3339
3362
3323
3334
3330
3283
3367
3364
3306
3339
3342
3337
3383
3306
3362
3363
3332
3238
3348
3342
3384
